c User generated cnf file
p cnf 9 43
9 -5 5 0 
2 4 -9 0 
-9 3 9 0 
-4 7 3 0 
-8 5 8 0 
-5 6 3 0 
6 8 -6 0 
8 -4 2 0 
5 -5 1 0 
8 -1 3 0 
6 -4 8 0 
-2 6 1 0 
5 2 -3 0 
-2 3 9 0 
-4 6 7 0 
6 -5 8 0 
2 2 -1 0 
-9 9 5 0 
1 -1 8 0 
1 4 -4 0 
5 2 -7 0 
2 -9 4 0 
7 -9 8 0 
6 -5 3 0 
1 -3 1 0 
7 8 -9 0 
1 -7 1 0 
3 -5 4 0 
7 -1 3 0 
7 9 -6 0 
2 1 -3 0 
7 -6 9 0 
-7 6 8 0 
-3 1 7 0 
6 -3 7 0 
2 2 -9 0 
4 -3 3 0 
4 9 -8 0 
7 7 -3 0 
4 8 -4 0 
4 -2 2 0 
5 -5 9 0 
7 5 -2 0 
